3
99
60
182
14
64
125
67
197
5
62
26
69
101
188
124
75
166
181
86
174
142
85
53
70
123
161
35
43
50
160
92
119
192
155
2
140
116
152
108
138
132
56
150
30
134
80
127
65
179
113
79
184
37
168
133
172
107
97
158
73
189
20
171
22
23
144
77
45
96
137
162
143
57
98
175
167
1
95
153
135
19
151
200
130
44
102
148
41
106
52
87
114
16
42
109
13
78
187
126
63
31
156
51
15
120
105
18
24
103
183
159
177
54
191
115
72
81
100
194
149
170
49
178
74
66
33
94
61
71
12
11
93
111
190
117
40
198
39
68
146
46
25
9
118
185
164
55
36
17
110
82
6
83
89
165
131
157
145
4
121
195
193
104
88
141
10
122
28
129
91
76
59
180
199
112
128
147
48
58
169
38
21
90
27
176
34
7
84
186
196
163
154
173
47
139
32
136
29
8
3
